
Gurobi 13.0.1 (linux64) logging started Fri Mar 20 20:52:06 2026

Set parameter LogFile to value "logs/100B_3F_deterministic_2026-03-20_20h51m37s.log"
Set parameter Threads to value 1
Gurobi Optimizer version 13.0.1 build v13.0.1rc0 (linux64 - "Linux Mint 22")

CPU model: 12th Gen Intel(R) Core(TM) i7-12700, instruction set [SSE2|AVX|AVX2]
Thread count: 20 physical cores, 20 logical processors, using up to 1 threads

Non-default parameters:
TimeLimit  3600
SoftMemLimit  12
Threads  1

Optimize a model with 59720 rows, 1530110 columns and 4609662 nonzeros (Max)
Model fingerprint: 0x44259498
Model has 1492535 linear objective coefficients
Variable types: 15110 continuous, 1515000 integer (1515000 binary)
Coefficient statistics:
  Matrix range     [3e-05, 1e+05]
  Objective range  [2e+01, 3e+03]
  Bounds range     [1e+00, 1e+05]
  RHS range        [1e+00, 1e+05]

Presolve removed 36209 rows and 1240576 columns
Presolve time: 0.78s
Presolved: 23511 rows, 289534 columns, 908598 nonzeros
Variable types: 5940 continuous, 283594 integer (283594 binary)
Found heuristic solution: objective -4.82082e+08
Performing another presolve...
Presolve added 0 rows and 10 columns
Presolve removed 18 rows and 0 columns
Presolve time: 1.16s

Root simplex log...

Iteration    Objective       Primal Inf.    Dual Inf.      Time
   15382    4.0111690e+08   4.921902e+05   0.000000e+00      5s
   23792    4.0111566e+08   1.395714e+05   0.000000e+00     10s
   25218    4.0111564e+08   0.000000e+00   0.000000e+00     13s

Root relaxation: objective 4.011156e+08, 25218 iterations, 10.69 seconds (21.47 work units)
Total elapsed time = 13.42s (DegenMoves)

    Nodes    |    Current Node    |     Objective Bounds      |     Work
 Expl Unexpl |  Obj  Depth IntInf | Incumbent    BestBd   Gap | It/Node Time

     0     0 4.0112e+08    0 4791 -4.821e+08 4.0112e+08   183%     -   13s
H    0     0                    1.637713e+08 4.0112e+08   145%     -   14s
H    0     0                    1.817122e+08 4.0112e+08   121%     -   14s
H    0     0                    2.358278e+08 4.0112e+08  70.1%     -   14s
H    0     0                    4.010268e+08 4.0112e+08  0.02%     -   18s
     0     0 4.0112e+08    0 5261 4.0103e+08 4.0112e+08  0.02%     -   38s
     0     0 4.0111e+08    0 5122 4.0103e+08 4.0111e+08  0.02%     -   92s
     0     0 4.0111e+08    0 5160 4.0103e+08 4.0111e+08  0.02%     -   95s
     0     0 4.0111e+08    0 5160 4.0103e+08 4.0111e+08  0.02%     -   97s
     0     0 4.0111e+08    0 5160 4.0103e+08 4.0111e+08  0.02%     -   99s
     0     0 4.0111e+08    0 5156 4.0103e+08 4.0111e+08  0.02%     -  100s
     0     0 4.0111e+08    0 5156 4.0103e+08 4.0111e+08  0.02%     -  103s
     0     0 4.0111e+08    0 5156 4.0103e+08 4.0111e+08  0.02%     -  103s
     0     2 4.0111e+08    0 5152 4.0103e+08 4.0111e+08  0.02%     -  121s
     2     4 4.0111e+08    1 4389 4.0103e+08 4.0111e+08  0.02%  2768  135s
     4     6 4.0111e+08    2 4136 4.0103e+08 4.0111e+08  0.02%  3112  154s
     5     7 4.0111e+08    3 5198 4.0103e+08 4.0111e+08  0.02%  2667  157s
     6     8 4.0111e+08    3 4210 4.0103e+08 4.0111e+08  0.02%  3179  171s
     8    10 4.0111e+08    4 4347 4.0103e+08 4.0111e+08  0.02%  3114  186s
    10    12 4.0111e+08    6 5145 4.0103e+08 4.0111e+08  0.02%  2610  190s
    11    13 4.0111e+08    6 4599 4.0103e+08 4.0111e+08  0.02%  3656  229s
H   12    12                    4.010314e+08 4.0111e+08  0.02%  3352  232s
H   12    12                    4.010327e+08 4.0111e+08  0.02%  3352  267s
    12    14 4.0111e+08    7 5188 4.0103e+08 4.0111e+08  0.02%  3385  335s
    13    15 4.0111e+08    8 5187 4.0103e+08 4.0111e+08  0.02%  3136  457s
    14    16 4.0111e+08    9 5253 4.0103e+08 4.0111e+08  0.02%  2940  461s
    15    17 4.0111e+08   10 5096 4.0103e+08 4.0111e+08  0.02%  2835  465s
    16    18 4.0111e+08   10 4850 4.0103e+08 4.0111e+08  0.02%  2898  499s
    17    19 4.0111e+08   11 5121 4.0103e+08 4.0111e+08  0.02%  2761  501s
    19    21 4.0111e+08   13 5288 4.0103e+08 4.0111e+08  0.02%  2561  506s
    20    22 4.0111e+08   13 4544 4.0103e+08 4.0111e+08  0.02%  2711  520s
    24    26 4.0111e+08   16 4273 4.0103e+08 4.0111e+08  0.02%  3007  570s
    28    30 4.0111e+08   20 5319 4.0103e+08 4.0111e+08  0.02%  2634  575s
    31    33 4.0111e+08   22 4217 4.0103e+08 4.0111e+08  0.02%  2686  601s
    33    35 4.0111e+08   23 4379 4.0103e+08 4.0111e+08  0.02%  2708  617s
    35    37 4.0111e+08   24 4286 4.0103e+08 4.0111e+08  0.02%  2759  635s
    37    39 4.0111e+08   25 4222 4.0103e+08 4.0111e+08  0.02%  2824  656s
    40    42 4.0111e+08   28 5562 4.0103e+08 4.0111e+08  0.02%  2641  660s
    42    44 4.0111e+08   29 4746 4.0103e+08 4.0111e+08  0.02%  2642  674s
    43    45 4.0111e+08   30 5485 4.0103e+08 4.0111e+08  0.02%  2589  675s
    46    48 4.0111e+08   33 5371 4.0103e+08 4.0111e+08  0.02%  2457  681s
    47    49 4.0111e+08   33 4525 4.0103e+08 4.0111e+08  0.02%  2518  695s
    49    51 4.0111e+08   34 4636 4.0103e+08 4.0111e+08  0.02%  2552  714s
    50    52 4.0111e+08   35 5394 4.0103e+08 4.0111e+08  0.02%  2520  717s
    52    54 4.0111e+08   37 5278 4.0103e+08 4.0111e+08  0.02%  2448  721s
    53    55 4.0111e+08   37 4518 4.0103e+08 4.0111e+08  0.02%  2659  759s
    54    56 4.0111e+08   38 5094 4.0103e+08 4.0111e+08  0.02%  2616  761s
    57    59 4.0111e+08   41 4885 4.0103e+08 4.0111e+08  0.02%  2520  768s
    58    60 4.0111e+08   41 4348 4.0103e+08 4.0111e+08  0.02%  2574  783s
    60    62 4.0111e+08   43 4941 4.0103e+08 4.0111e+08  0.02%  2499  785s
    62    64 4.0111e+08   44 4414 4.0103e+08 4.0111e+08  0.02%  2557  807s
    64    66 4.0111e+08   46 5188 4.0103e+08 4.0111e+08  0.02%  2498  811s
    67    69 4.0111e+08   49 5112 4.0103e+08 4.0111e+08  0.02%  2408  815s
    69    71 4.0111e+08   50 4645 4.0103e+08 4.0111e+08  0.02%  2411  828s
    70    72 4.0111e+08   51 5079 4.0103e+08 4.0111e+08  0.02%  2386  830s
    71    73 4.0111e+08   51 4142 4.0103e+08 4.0111e+08  0.02%  2447  845s
    75    77 4.0111e+08   55 5248 4.0103e+08 4.0111e+08  0.02%  2338  850s
    77    79 4.0111e+08   56 4197 4.0103e+08 4.0111e+08  0.02%  2387  871s
    79    81 4.0111e+08   58 3909 4.0103e+08 4.0111e+08  0.02%  2424  891s
    82    84 4.0111e+08   60 5186 4.0103e+08 4.0111e+08  0.02%  2358  896s
    87    89 4.0111e+08   65 5310 4.0103e+08 4.0111e+08  0.02%  2244  902s
    89    91 4.0111e+08   67 5117 4.0103e+08 4.0111e+08  0.02%  2212  906s
    90    92 4.0111e+08   67 4227 4.0103e+08 4.0111e+08  0.02%  2278  924s
    91    93 4.0111e+08   68 5174 4.0103e+08 4.0111e+08  0.02%  2256  925s
    96    98 4.0111e+08   73 5136 4.0103e+08 4.0111e+08  0.02%  2159  931s
    98   100 4.0111e+08   74 4399 4.0103e+08 4.0111e+08  0.02%  2189  950s
   101   103 4.0111e+08   77 5120 4.0103e+08 4.0111e+08  0.02%  2141  958s
   102   104 4.0111e+08   78 5029 4.0103e+08 4.0111e+08  0.02%  2123  960s
   104   106 4.0111e+08   79 4395 4.0103e+08 4.0111e+08  0.02%  2254 1010s
   107   109 4.0111e+08   82 5092 4.0103e+08 4.0111e+08  0.02%  2204 1016s
   109   111 4.0111e+08   84 5137 4.0103e+08 4.0111e+08  0.02%  2175 1022s
   110   112 4.0111e+08   84 4426 4.0103e+08 4.0111e+08  0.02%  2214 1037s
   111   113 4.0111e+08   85 4785 4.0103e+08 4.0111e+08  0.02%  2206 1042s
   112   114 4.0111e+08   85 4325 4.0103e+08 4.0111e+08  0.02%  2247 1060s
   114   116 4.0111e+08   86 4345 4.0103e+08 4.0111e+08  0.02%  2278 1082s
   115   117 4.0111e+08   87 4875 4.0103e+08 4.0111e+08  0.02%  2264 1085s
   116   118 4.0111e+08   87 4261 4.0103e+08 4.0111e+08  0.02%  2292 1098s
   117   119 4.0111e+08   88 4871 4.0103e+08 4.0111e+08  0.02%  2277 1100s
   118   120 4.0111e+08   88 4086 4.0103e+08 4.0111e+08  0.02%  2351 1293s
   119   121 4.0111e+08   89 4866 4.0103e+08 4.0111e+08  0.02%  2338 1296s
   120   122 4.0111e+08   89 4201 4.0103e+08 4.0111e+08  0.02%  2371 1311s
   122   124 4.0111e+08   91 4925 4.0103e+08 4.0111e+08  0.02%  2342 1315s
   125   127 4.0111e+08   94 4846 4.0103e+08 4.0111e+08  0.02%  2297 1320s
   128   130 4.0111e+08   97 4796 4.0103e+08 4.0111e+08  0.02%  2256 1325s
   129   131 4.0111e+08   97 4018 4.0103e+08 4.0111e+08  0.02%  2286 1340s
   130   132 4.0111e+08   98 4720 4.0103e+08 4.0111e+08  0.02%  2284 1346s
   131   133 4.0111e+08   98 4176 4.0103e+08 4.0111e+08  0.02%  2317 1361s
   133   135 4.0111e+08   99 4207 4.0103e+08 4.0111e+08  0.02%  2338 1379s
   134   136 4.0111e+08  100 4765 4.0103e+08 4.0111e+08  0.02%  2323 1380s
   136   138 4.0111e+08  101 4032 4.0103e+08 4.0111e+08  0.02%  2346 1400s
   137   139 4.0111e+08  102 4944 4.0103e+08 4.0111e+08  0.02%  2342 1405s
   138   140 4.0111e+08  102 4252 4.0103e+08 4.0111e+08  0.02%  2405 1435s
   140   142 4.0111e+08  104 4988 4.0103e+08 4.0111e+08  0.02%  2389 1443s
   141   143 4.0111e+08  105 5033 4.0103e+08 4.0111e+08  0.02%  2379 1446s
   142   144 4.0111e+08  105 4236 4.0103e+08 4.0111e+08  0.02%  2404 1461s
   145   147 4.0111e+08  107 4144 4.0103e+08 4.0111e+08  0.02%  2409 1481s
   147   149 4.0111e+08  109 4894 4.0103e+08 4.0111e+08  0.02%  2385 1485s
   149   151 4.0111e+08  111 5032 4.0103e+08 4.0111e+08  0.02%  2365 1490s
   152   154 4.0111e+08  113 4179 4.0103e+08 4.0111e+08  0.02%  2365 1510s
   154   156 4.0111e+08  115 4981 4.0103e+08 4.0111e+08  0.02%  2348 1516s
   157   159 4.0111e+08  118 4886 4.0103e+08 4.0111e+08  0.02%  2311 1520s
   158   160 4.0111e+08  119 4641 4.0103e+08 4.0111e+08  0.02%  2309 1525s
   159   161 4.0111e+08  119 4478 4.0103e+08 4.0111e+08  0.02%  2329 1539s
   160   162 4.0111e+08  120 4548 4.0103e+08 4.0111e+08  0.02%  2321 1542s
   161   163 4.0111e+08  121 4788 4.0103e+08 4.0111e+08  0.02%  2314 1546s
   162   164 4.0111e+08  121 4248 4.0103e+08 4.0111e+08  0.02%  2328 1558s
   165   167 4.0111e+08  124 4782 4.0103e+08 4.0111e+08  0.02%  2304 1567s
   166   168 4.0111e+08  124 4046 4.0103e+08 4.0111e+08  0.02%  2321 1580s
   168   170 4.0111e+08  126 4729 4.0103e+08 4.0111e+08  0.02%  2305 1585s
   170   172 4.0111e+08  128 4800 4.0103e+08 4.0111e+08  0.02%  2285 1590s
   173   175 4.0111e+08  131 4623 4.0103e+08 4.0111e+08  0.02%  2266 1600s
   174   176 4.0111e+08  131 4073 4.0103e+08 4.0111e+08  0.02%  2284 1613s
   175   177 4.0111e+08  132 4597 4.0103e+08 4.0111e+08  0.02%  2274 1615s
   178   180 4.0111e+08  135 4486 4.0103e+08 4.0111e+08  0.02%  2245 1620s
   179   181 4.0111e+08  136 4224 4.0103e+08 4.0111e+08  0.02%  2257 1631s
   180   182 4.0111e+08  136 4285 4.0103e+08 4.0111e+08  0.02%  2265 1641s
   181   183 4.0111e+08  137 4394 4.0103e+08 4.0111e+08  0.02%  2259 1645s
   186   188 4.0111e+08  142 4470 4.0103e+08 4.0111e+08  0.02%  2210 1651s
   188   190 4.0111e+08  144 4434 4.0103e+08 4.0111e+08  0.02%  2191 1706s
   192   194 4.0111e+08  148 4481 4.0103e+08 4.0111e+08  0.02%  2152 1710s
   195   197 4.0111e+08  151 4521 4.0103e+08 4.0111e+08  0.02%  2130 1716s
   197   199 4.0111e+08  153 3969 4.0103e+08 4.0111e+08  0.02%  2141 1734s
H  198   198                    4.010432e+08 4.0111e+08  0.02%  2130 1781s
H  198   198                    4.010442e+08 4.0111e+08  0.02%  2130 1832s
   198   200 4.0111e+08  153 4506 4.0104e+08 4.0111e+08  0.02%  2148 1860s
   202   204 4.0111e+08  156 4486 4.0104e+08 4.0111e+08  0.02%  2113 1865s
   208   210 4.0111e+08  162 4519 4.0104e+08 4.0111e+08  0.02%  2063 1872s
   209   211 4.0111e+08  162 4291 4.0104e+08 4.0111e+08  0.02%  2066 1879s
   210   212 4.0111e+08  163 4436 4.0104e+08 4.0111e+08  0.02%  2063 1883s
   211   213 4.0111e+08  164 4399 4.0104e+08 4.0111e+08  0.02%  2059 1886s
   213   215 4.0111e+08  166 4406 4.0104e+08 4.0111e+08  0.02%  2049 1892s
   214   216 4.0111e+08  166 4113 4.0104e+08 4.0111e+08  0.02%  2057 1902s
   216   218 4.0111e+08  168 4500 4.0104e+08 4.0111e+08  0.02%  2043 1905s
   221   223 4.0111e+08  173 4483 4.0104e+08 4.0111e+08  0.02%  2004 1911s
   224   226 4.0111e+08  176 4468 4.0104e+08 4.0111e+08  0.02%  1984 1916s
   227   229 4.0111e+08  179 4383 4.0104e+08 4.0111e+08  0.02%  1966 1921s
   232   234 4.0111e+08  184 4361 4.0104e+08 4.0111e+08  0.02%  1929 1925s
   235   237 4.0111e+08  187 4299 4.0104e+08 4.0111e+08  0.02%  1911 1930s
   238   240 4.0111e+08  190 4336 4.0104e+08 4.0111e+08  0.02%  1894 1935s
   241   243 4.0111e+08  193 4463 4.0104e+08 4.0111e+08  0.02%  1878 1941s
   245   247 4.0111e+08  197 4268 4.0104e+08 4.0111e+08  0.02%  1855 1947s
   246   248 4.0111e+08  197 4046 4.0104e+08 4.0111e+08  0.02%  1860 1955s
   248   250 4.0111e+08  199 4388 4.0104e+08 4.0111e+08  0.02%  1852 1960s
   250   252 4.0111e+08  201 4379 4.0104e+08 4.0111e+08  0.02%  1845 1965s
   254   256 4.0111e+08  205 4203 4.0104e+08 4.0111e+08  0.02%  1824 1971s
   257   259 4.0111e+08  208 4410 4.0104e+08 4.0111e+08  0.02%  1807 1975s
   260   262 4.0111e+08  211 4254 4.0104e+08 4.0111e+08  0.02%  1793 1980s
   262   264 4.0111e+08  213 4487 4.0104e+08 4.0111e+08  0.02%  1786 1985s
   264   266 4.0111e+08  215 4636 4.0104e+08 4.0111e+08  0.02%  1792 1998s
   265   267 4.0111e+08  215 4153 4.0104e+08 4.0111e+08  0.02%  1790 2002s
   269   271 4.0111e+08  219 4249 4.0104e+08 4.0111e+08  0.02%  1767 2005s
   271   273 4.0111e+08  220 4275 4.0104e+08 4.0111e+08  0.02%  1761 2010s
   274   276 4.0111e+08  222 3996 4.0104e+08 4.0111e+08  0.02%  1756 2020s
   277   279 4.0111e+08  225 4236 4.0104e+08 4.0111e+08  0.02%  1744 2026s
   278   280 4.0111e+08  225 4000 4.0104e+08 4.0111e+08  0.02%  1753 2038s
   279   281 4.0111e+08  226 4188 4.0104e+08 4.0111e+08  0.02%  1749 2041s
   282   284 4.0111e+08  229 4239 4.0104e+08 4.0111e+08  0.02%  1734 2046s
   284   286 4.0111e+08  230 4015 4.0104e+08 4.0111e+08  0.02%  1737 2058s
   285   287 4.0111e+08  231 4129 4.0104e+08 4.0111e+08  0.02%  1733 2061s
   287   289 4.0111e+08  232 3856 4.0104e+08 4.0111e+08  0.02%  1734 2072s
   288   290 4.0111e+08  233 4235 4.0104e+08 4.0111e+08  0.02%  1730 2075s
   289   291 4.0111e+08  234 4012 4.0104e+08 4.0111e+08  0.02%  1730 2080s
   290   292 4.0111e+08  234 4009 4.0104e+08 4.0111e+08  0.02%  1734 2088s
   291   293 4.0111e+08  235 4153 4.0104e+08 4.0111e+08  0.02%  1732 2091s
   292   294 4.0111e+08  236 4201 4.0104e+08 4.0111e+08  0.02%  1731 2095s
   295   297 4.0111e+08  239 4207 4.0104e+08 4.0111e+08  0.02%  1717 2100s
   299   301 4.0111e+08  243 4169 4.0104e+08 4.0111e+08  0.02%  1696 2105s
H  300   300                    4.010501e+08 4.0111e+08  0.02%  1690 2108s
   300   302 4.0111e+08  244 4158 4.0105e+08 4.0111e+08  0.02%  1691 2111s
   302   304 4.0111e+08  246 4133 4.0105e+08 4.0111e+08  0.02%  1684 2115s
   305   307 4.0111e+08  249 4287 4.0105e+08 4.0111e+08  0.02%  1671 2121s
   306   308 4.0111e+08  249 4017 4.0105e+08 4.0111e+08  0.02%  1677 2130s
   310   312 4.0111e+08  253 4302 4.0105e+08 4.0111e+08  0.02%  1662 2138s
   311   313 4.0111e+08  253 3563 4.0105e+08 4.0111e+08  0.02%  1678 2154s
   312   314 4.0111e+08  254 4251 4.0105e+08 4.0111e+08  0.02%  1673 2155s
   314   316 4.0111e+08  256 4280 4.0105e+08 4.0111e+08  0.02%  1669 2162s
   315   317 4.0111e+08  256 4153 4.0105e+08 4.0111e+08  0.02%  1670 2167s
   318   320 4.0111e+08  259 4263 4.0105e+08 4.0111e+08  0.02%  1655 2170s
   322   324 4.0111e+08  263 4313 4.0105e+08 4.0111e+08  0.02%  1637 2175s
   325   327 4.0111e+08  266 4344 4.0105e+08 4.0111e+08  0.02%  1625 2180s
   331   333 4.0111e+08  272 4300 4.0105e+08 4.0111e+08  0.02%  1600 2187s
   335   337 4.0111e+08  276 4342 4.0105e+08 4.0111e+08  0.02%  1583 2190s
   341   343 4.0111e+08  282 4276 4.0105e+08 4.0111e+08  0.02%  1560 2195s
   345   347 4.0111e+08  286 4359 4.0105e+08 4.0111e+08  0.02%  1544 2200s
   349   351 4.0111e+08  290 4209 4.0105e+08 4.0111e+08  0.02%  1531 2205s
   352   354 4.0111e+08  293 4295 4.0105e+08 4.0111e+08  0.02%  1521 2210s
   360   362 4.0111e+08  301 4323 4.0105e+08 4.0111e+08  0.02%  1490 2215s
   365   367 4.0111e+08  306 4116 4.0105e+08 4.0111e+08  0.02%  1474 2221s
   369   371 4.0111e+08  310 4175 4.0105e+08 4.0111e+08  0.02%  1461 2225s
   371   373 4.0111e+08  312 4074 4.0105e+08 4.0111e+08  0.02%  1456 2230s
   373   375 4.0111e+08  313 4066 4.0105e+08 4.0111e+08  0.02%  1453 2235s
   375   377 4.0111e+08  315 4104 4.0105e+08 4.0111e+08  0.02%  1449 2240s
   379   381 4.0111e+08  319 4129 4.0105e+08 4.0111e+08  0.02%  1437 2252s
   381   383 4.0111e+08  321 4054 4.0105e+08 4.0111e+08  0.02%  1431 2255s
   385   387 4.0111e+08  325 4058 4.0105e+08 4.0111e+08  0.02%  1419 2260s
   390   392 4.0111e+08  330 4239 4.0105e+08 4.0111e+08  0.02%  1405 2267s
   394   396 4.0111e+08  334 4124 4.0105e+08 4.0111e+08  0.02%  1394 2271s
   397   399 4.0111e+08  337 4405 4.0105e+08 4.0111e+08  0.02%  1388 2277s
   398   400 4.0111e+08  337 4092 4.0105e+08 4.0111e+08  0.02%  1393 2286s
   401   403 4.0111e+08  340 4408 4.0105e+08 4.0111e+08  0.02%  1385 2290s
   409   411 4.0111e+08  348 4344 4.0105e+08 4.0111e+08  0.02%  1361 2296s
   412   414 4.0111e+08  351 4330 4.0105e+08 4.0111e+08  0.02%  1355 2302s
   413   415 4.0111e+08  352 4543 4.0105e+08 4.0111e+08  0.02%  1355 2306s
   414   416 4.0111e+08  352 3907 4.0105e+08 4.0111e+08  0.02%  1361 2317s
   417   419 4.0111e+08  355 4509 4.0105e+08 4.0111e+08  0.02%  1353 2320s
   421   423 4.0111e+08  359 4512 4.0105e+08 4.0111e+08  0.02%  1342 2325s
   422   424 4.0111e+08  359 4328 4.0105e+08 4.0111e+08  0.02%  1343 2330s
   426   428 4.0111e+08  363 4569 4.0105e+08 4.0111e+08  0.02%  1334 2336s
   428   430 4.0111e+08  365 4527 4.0105e+08 4.0111e+08  0.02%  1331 2340s
   433   435 4.0111e+08  370 4352 4.0105e+08 4.0111e+08  0.02%  1319 2346s
   436   438 4.0111e+08  373 4341 4.0105e+08 4.0111e+08  0.02%  1312 2350s
   442   444 4.0111e+08  379 4369 4.0105e+08 4.0111e+08  0.02%  1297 2355s
   446   448 4.0111e+08  382 4038 4.0105e+08 4.0111e+08  0.02%  1296 2369s
   447   449 4.0111e+08  383 4302 4.0105e+08 4.0111e+08  0.02%  1295 2371s
   449   451 4.0111e+08  385 4352 4.0105e+08 4.0111e+08  0.02%  1291 2375s
   452   454 4.0111e+08  388 4446 4.0105e+08 4.0111e+08  0.02%  1284 2380s
   458   460 4.0111e+08  394 4398 4.0105e+08 4.0111e+08  0.02%  1273 2388s
   460   462 4.0111e+08  396 4537 4.0105e+08 4.0111e+08  0.02%  1268 2390s
   465   467 4.0111e+08  401 4373 4.0105e+08 4.0111e+08  0.02%  1258 2395s
   472   474 4.0111e+08  408 4301 4.0105e+08 4.0111e+08  0.02%  1242 2401s
   473   475 4.0111e+08  409 4329 4.0105e+08 4.0111e+08  0.02%  1239 2409s
   474   476 4.0111e+08  410 4307 4.0105e+08 4.0111e+08  0.02%  1237 2410s
   480   482 4.0111e+08  416 4279 4.0105e+08 4.0111e+08  0.02%  1224 2415s
   482   484 4.0111e+08  417 3669 4.0105e+08 4.0111e+08  0.02%  1239 2441s
   485   487 4.0111e+08  420 4449 4.0105e+08 4.0111e+08  0.02%  1233 2445s
   489   491 4.0111e+08  424 4412 4.0105e+08 4.0111e+08  0.02%  1225 2450s
   492   494 4.0111e+08  427 4448 4.0105e+08 4.0111e+08  0.02%  1219 2455s
   494   496 4.0111e+08  429 4396 4.0105e+08 4.0111e+08  0.02%  1217 2460s
   495   497 4.0111e+08  429 4019 4.0105e+08 4.0111e+08  0.02%  1222 2469s
   496   498 4.0111e+08  430 4455 4.0105e+08 4.0111e+08  0.02%  1220 2472s
   497   499 4.0111e+08  431 4464 4.0105e+08 4.0111e+08  0.02%  1220 2475s
   498   500 4.0111e+08  431 4197 4.0105e+08 4.0111e+08  0.02%  1221 2480s
   500   502 4.0111e+08  432 3992 4.0105e+08 4.0111e+08  0.02%  1223 2490s
   503   505 4.0111e+08  435 4399 4.0105e+08 4.0111e+08  0.02%  1218 2496s
   505   507 4.0111e+08  437 4351 4.0105e+08 4.0111e+08  0.02%  1215 2503s
   507   509 4.0111e+08  439 4265 4.0105e+08 4.0111e+08  0.02%  1212 2505s
   510   512 4.0111e+08  442 4438 4.0105e+08 4.0111e+08  0.02%  1207 2511s
   511   513 4.0111e+08  442 4083 4.0105e+08 4.0111e+08  0.02%  1211 2520s
   515   517 4.0111e+08  446 4245 4.0105e+08 4.0111e+08  0.02%  1204 2525s
   519   521 4.0111e+08  450 4319 4.0105e+08 4.0111e+08  0.02%  1197 2530s
   523   525 4.0111e+08  454 4285 4.0105e+08 4.0111e+08  0.02%  1191 2535s
   528   530 4.0111e+08  459 4123 4.0105e+08 4.0111e+08  0.02%  1182 2541s
   532   534 4.0111e+08  463 4214 4.0105e+08 4.0111e+08  0.02%  1176 2546s
   534   536 4.0111e+08  465 4059 4.0105e+08 4.0111e+08  0.02%  1173 2550s
   539   541 4.0111e+08  470 4319 4.0105e+08 4.0111e+08  0.02%  1164 2555s
   542   544 4.0111e+08  472 3444 4.0105e+08 4.0111e+08  0.02%  1171 2573s
   544   546 4.0111e+08  474 4238 4.0105e+08 4.0111e+08  0.02%  1167 2575s
   547   549 4.0111e+08  477 4076 4.0105e+08 4.0111e+08  0.02%  1164 2581s
   549   551 4.0111e+08  479 4168 4.0105e+08 4.0111e+08  0.02%  1161 2585s
   553   555 4.0111e+08  483 4174 4.0105e+08 4.0111e+08  0.02%  1154 2590s
   557   559 4.0111e+08  487 4169 4.0105e+08 4.0111e+08  0.02%  1149 2596s
   561   563 4.0111e+08  491 4106 4.0105e+08 4.0111e+08  0.02%  1142 2600s
   564   566 4.0111e+08  494 4253 4.0105e+08 4.0111e+08  0.02%  1137 2641s
   566   568 4.0111e+08  496 4254 4.0105e+08 4.0111e+08  0.02%  1135 2645s
   569   571 4.0111e+08  499 4276 4.0105e+08 4.0111e+08  0.02%  1131 2650s
   572   574 4.0111e+08  502 4216 4.0105e+08 4.0111e+08  0.02%  1127 2656s
   574   576 4.0111e+08  504 4223 4.0105e+08 4.0111e+08  0.02%  1126 2661s
   575   577 4.0111e+08  504 3874 4.0105e+08 4.0111e+08  0.02%  1128 2669s
   576   578 4.0111e+08  505 4330 4.0105e+08 4.0111e+08  0.02%  1126 2670s
   578   580 4.0111e+08  506 4287 4.0105e+08 4.0111e+08  0.02%  1126 2677s
   580   582 4.0111e+08  508 4270 4.0105e+08 4.0111e+08  0.02%  1123 2680s
   582   584 4.0111e+08  509 4172 4.0105e+08 4.0111e+08  0.02%  1124 2688s
   583   585 4.0111e+08  510 4305 4.0105e+08 4.0111e+08  0.02%  1123 2691s
   586   588 4.0111e+08  513 4021 4.0105e+08 4.0111e+08  0.02%  1119 2696s
   588   590 4.0111e+08  515 4222 4.0105e+08 4.0111e+08  0.02%  1117 2700s
   592   594 4.0111e+08  519 4144 4.0105e+08 4.0111e+08  0.02%  1111 2705s
   595   597 4.0111e+08  522 4085 4.0105e+08 4.0111e+08  0.02%  1108 2710s
   598   600 4.0111e+08  525 4088 4.0105e+08 4.0111e+08  0.02%  1104 2715s
   603   605 4.0111e+08  530 3991 4.0105e+08 4.0111e+08  0.02%  1097 2720s
   607   609 4.0111e+08  534 4080 4.0105e+08 4.0111e+08  0.02%  1092 2725s
   612   614 4.0111e+08  539 4231 4.0105e+08 4.0111e+08  0.02%  1086 2731s
   618   620 4.0111e+08  545 4165 4.0105e+08 4.0111e+08  0.02%  1077 2735s
   625   627 4.0111e+08  552 4245 4.0105e+08 4.0111e+08  0.02%  1067 2741s
   628   630 4.0111e+08  555 4215 4.0105e+08 4.0111e+08  0.02%  1064 2745s
   633   635 4.0111e+08  560 4116 4.0105e+08 4.0111e+08  0.02%  1058 2750s
   636   638 4.0111e+08  563 4176 4.0105e+08 4.0111e+08  0.02%  1055 2755s
   637   639 4.0111e+08  563 3835 4.0105e+08 4.0111e+08  0.02%  1056 2761s
   640   642 4.0111e+08  566 4266 4.0105e+08 4.0111e+08  0.02%  1054 2767s
   641   643 4.0111e+08  566 4119 4.0105e+08 4.0111e+08  0.02%  1055 2774s
   642   644 4.0111e+08  567 4279 4.0105e+08 4.0111e+08  0.02%  1054 2775s
   643   645 4.0111e+08  568 4112 4.0105e+08 4.0111e+08  0.02%  1055 2780s
   645   647 4.0111e+08  569 4223 4.0105e+08 4.0111e+08  0.02%  1054 2785s
   648   650 4.0111e+08  572 4266 4.0105e+08 4.0111e+08  0.02%  1052 2791s
   649   651 4.0111e+08  572 3796 4.0105e+08 4.0111e+08  0.02%  1055 2799s
   650   652 4.0111e+08  573 4138 4.0105e+08 4.0111e+08  0.02%  1054 2802s
   652   654 4.0111e+08  575 4135 4.0105e+08 4.0111e+08  0.02%  1052 2805s
   656   658 4.0111e+08  579 4339 4.0105e+08 4.0111e+08  0.02%  1047 2810s
   659   661 4.0111e+08  582 4210 4.0105e+08 4.0111e+08  0.02%  1046 2816s
   660   662 4.0111e+08  582 3790 4.0105e+08 4.0111e+08  0.02%  1049 2824s
   661   663 4.0111e+08  583 4168 4.0105e+08 4.0111e+08  0.02%  1047 2826s
   666   668 4.0111e+08  588 4172 4.0105e+08 4.0111e+08  0.02%  1040 2830s
   672   674 4.0111e+08  594 4219 4.0105e+08 4.0111e+08  0.02%  1033 2835s
   676   678 4.0111e+08  598 4251 4.0105e+08 4.0111e+08  0.02%  1029 2840s
   681   683 4.0111e+08  603 4287 4.0105e+08 4.0111e+08  0.02%  1024 2845s
   691   693 4.0111e+08  613 4280 4.0105e+08 4.0111e+08  0.02%  1011 2850s
   696   698 4.0111e+08  618 4284 4.0105e+08 4.0111e+08  0.02%  1005 2855s
   703   705 4.0111e+08  625 4230 4.0105e+08 4.0111e+08  0.02%   997 2860s
   708   710 4.0111e+08  630 4303 4.0105e+08 4.0111e+08  0.02%   992 2865s
   712   714 4.0111e+08  634 4195 4.0105e+08 4.0111e+08  0.02%   989 2870s
   714   716 4.0111e+08  635 3960 4.0105e+08 4.0111e+08  0.02%   991 2881s
   716   718 4.0111e+08  637 4081 4.0105e+08 4.0111e+08  0.02%   990 2886s
   717   719 4.0111e+08  637 4116 4.0105e+08 4.0111e+08  0.02%   993 2893s
   718   720 4.0111e+08  638 4150 4.0105e+08 4.0111e+08  0.02%   992 2895s
   721   723 4.0111e+08  640 4116 4.0105e+08 4.0111e+08  0.02%   991 2903s
   723   725 4.0111e+08  642 4119 4.0105e+08 4.0111e+08  0.02%   989 2905s
   727   729 4.0111e+08  646 4238 4.0105e+08 4.0111e+08  0.02%   985 2910s
   731   733 4.0111e+08  649 3716 4.0105e+08 4.0111e+08  0.02%   985 2920s
   736   738 4.0111e+08  654 4288 4.0105e+08 4.0111e+08  0.02%   980 2925s
   737   739 4.0111e+08  654 3981 4.0105e+08 4.0111e+08  0.02%   983 2933s
   739   741 4.0111e+08  656 4182 4.0105e+08 4.0111e+08  0.02%   980 2935s
   749   751 4.0111e+08  666 4090 4.0105e+08 4.0111e+08  0.02%   969 2941s
   751   753 4.0111e+08  668 4118 4.0105e+08 4.0111e+08  0.02%   968 2945s
   758   760 4.0111e+08  675 4058 4.0105e+08 4.0111e+08  0.02%   962 2951s
   763   765 4.0111e+08  680 4192 4.0105e+08 4.0111e+08  0.02%   957 2955s
   768   770 4.0111e+08  685 4183 4.0105e+08 4.0111e+08  0.02%   953 2962s
   769   771 4.0111e+08  685 4027 4.0105e+08 4.0111e+08  0.02%   958 2976s
   772   774 4.0111e+08  688 4131 4.0105e+08 4.0111e+08  0.02%   956 2980s
   776   778 4.0111e+08  692 4189 4.0105e+08 4.0111e+08  0.02%   952 2985s
   779   781 4.0111e+08  695 4168 4.0105e+08 4.0111e+08  0.02%   950 2990s
   780   782 4.0111e+08  695 3543 4.0105e+08 4.0111e+08  0.02%   954 3000s
   784   786 4.0111e+08  699 4204 4.0105e+08 4.0111e+08  0.02%   951 3005s
   793   795 4.0111e+08  708 4149 4.0105e+08 4.0111e+08  0.02%   942 3012s
   794   796 4.0111e+08  708 3872 4.0105e+08 4.0111e+08  0.02%   945 3021s
   796   798 4.0111e+08  710 4275 4.0105e+08 4.0111e+08  0.02%   944 3025s
   800   802 4.0111e+08  714 4222 4.0105e+08 4.0111e+08  0.02%   941 3030s
   806   808 4.0111e+08  720 4287 4.0105e+08 4.0111e+08  0.02%   936 3035s
   810   812 4.0111e+08  724 4221 4.0105e+08 4.0111e+08  0.02%   933 3040s
   816   818 4.0111e+08  730 4327 4.0105e+08 4.0111e+08  0.02%   928 3045s
   817   819 4.0111e+08  730 4003 4.0105e+08 4.0111e+08  0.02%   929 3051s
   823   825 4.0111e+08  736 4127 4.0105e+08 4.0111e+08  0.02%   923 3055s
   827   829 4.0111e+08  740 4096 4.0105e+08 4.0111e+08  0.02%   921 3060s
   828   830 4.0111e+08  740 3927 4.0105e+08 4.0111e+08  0.02%   922 3067s
   830   832 4.0111e+08  742 4100 4.0105e+08 4.0111e+08  0.02%   921 3070s
   834   836 4.0111e+08  746 4214 4.0105e+08 4.0111e+08  0.02%   918 3075s
   838   840 4.0111e+08  750 4309 4.0105e+08 4.0111e+08  0.02%   915 3080s
   842   844 4.0111e+08  754 4243 4.0105e+08 4.0111e+08  0.02%   913 3085s
   847   849 4.0111e+08  759 4341 4.0105e+08 4.0111e+08  0.02%   909 3091s
   851   853 4.0111e+08  763 4257 4.0105e+08 4.0111e+08  0.02%   906 3095s
   856   858 4.0111e+08  768 4200 4.0105e+08 4.0111e+08  0.02%   903 3101s
   859   861 4.0111e+08  771 4217 4.0105e+08 4.0111e+08  0.02%   901 3105s
   864   866 4.0111e+08  776 4084 4.0105e+08 4.0111e+08  0.02%   898 3110s
   868   870 4.0111e+08  780 4261 4.0105e+08 4.0111e+08  0.02%   895 3115s
   875   877 4.0111e+08  787 4143 4.0105e+08 4.0111e+08  0.02%   889 3120s
   881   883 4.0111e+08  793 4147 4.0105e+08 4.0111e+08  0.02%   885 3125s
   886   888 4.0111e+08  798 4037 4.0105e+08 4.0111e+08  0.02%   881 3130s
   889   891 4.0111e+08  801 4157 4.0105e+08 4.0111e+08  0.02%   880 3135s
   894   896 4.0111e+08  806 4050 4.0105e+08 4.0111e+08  0.02%   877 3140s
   898   900 4.0111e+08  810 4084 4.0105e+08 4.0111e+08  0.02%   874 3145s
   899   901 4.0111e+08  810 3948 4.0105e+08 4.0111e+08  0.02%   877 3154s
   900   902 4.0111e+08  811 3927 4.0105e+08 4.0111e+08  0.02%   877 3156s
   904   906 4.0111e+08  815 3997 4.0105e+08 4.0111e+08  0.02%   874 3160s
   908   910 4.0111e+08  819 4138 4.0105e+08 4.0111e+08  0.02%   871 3165s
   913   915 4.0111e+08  824 4172 4.0105e+08 4.0111e+08  0.02%   868 3171s
   918   920 4.0111e+08  829 4116 4.0105e+08 4.0111e+08  0.02%   865 3175s
   924   926 4.0111e+08  835 4133 4.0105e+08 4.0111e+08  0.02%   861 3180s
   932   934 4.0111e+08  843 4121 4.0105e+08 4.0111e+08  0.02%   855 3185s
   940   942 4.0111e+08  851 4040 4.0105e+08 4.0111e+08  0.02%   849 3190s
   946   948 4.0111e+08  857 3868 4.0105e+08 4.0111e+08  0.02%   845 3195s
   947   949 4.0111e+08  857 3684 4.0105e+08 4.0111e+08  0.02%   850 3209s
   948   950 4.0111e+08  858 3836 4.0105e+08 4.0111e+08  0.02%   849 3210s
   952   954 4.0111e+08  862 3877 4.0105e+08 4.0111e+08  0.02%   846 3215s
   955   957 4.0111e+08  865 3894 4.0105e+08 4.0111e+08  0.02%   845 3221s
   961   963 4.0111e+08  871 3958 4.0105e+08 4.0111e+08  0.02%   841 3225s
   967   969 4.0111e+08  877 3921 4.0105e+08 4.0111e+08  0.02%   837 3231s
   968   970 4.0111e+08  877 3211 4.0105e+08 4.0111e+08  0.02%   843 3245s
   973   975 4.0111e+08  882 3955 4.0105e+08 4.0111e+08  0.02%   840 3250s
   978   980 4.0111e+08  887 3872 4.0105e+08 4.0111e+08  0.02%   837 3257s
   979   981 4.0111e+08  887 3423 4.0105e+08 4.0111e+08  0.02%   842 3270s
   982   984 4.0111e+08  890 3840 4.0105e+08 4.0111e+08  0.02%   841 3277s
   984   986 4.0111e+08  892 3918 4.0105e+08 4.0111e+08  0.02%   840 3280s
   987   989 4.0111e+08  895 3943 4.0105e+08 4.0111e+08  0.02%   839 3285s
   991   993 4.0111e+08  899 3864 4.0105e+08 4.0111e+08  0.02%   837 3291s
   992   994 4.0111e+08  899 3641 4.0105e+08 4.0111e+08  0.02%   839 3299s
   993   995 4.0111e+08  900 3863 4.0105e+08 4.0111e+08  0.02%   839 3300s
   997   999 4.0111e+08  904 3712 4.0105e+08 4.0111e+08  0.02%   837 3305s
  1001  1003 4.0111e+08  908 3765 4.0105e+08 4.0111e+08  0.02%   835 3311s
  1002  1004 4.0111e+08  909 3742 4.0105e+08 4.0111e+08  0.02%   836 3315s
  1004  1006 4.0111e+08  910 3391 4.0105e+08 4.0111e+08  0.02%   840 3332s
  1006  1008 4.0111e+08  912 3782 4.0105e+08 4.0111e+08  0.02%   840 3336s
  1009  1011 4.0111e+08  915 3675 4.0105e+08 4.0111e+08  0.02%   838 3340s
  1010  1012 4.0111e+08  915 3213 4.0105e+08 4.0111e+08  0.02%   842 3353s
  1011  1013 4.0111e+08  916 3804 4.0105e+08 4.0111e+08  0.02%   842 3355s
  1015  1017 4.0111e+08  920 3787 4.0105e+08 4.0111e+08  0.02%   840 3361s
  1018  1020 4.0111e+08  923 3870 4.0105e+08 4.0111e+08  0.02%   838 3365s
  1021  1023 4.0111e+08  926 3705 4.0105e+08 4.0111e+08  0.02%   837 3370s
  1023  1025 4.0111e+08  927 3259 4.0105e+08 4.0111e+08  0.02%   843 3391s
  1026  1028 4.0111e+08  930 3702 4.0105e+08 4.0111e+08  0.02%   842 3395s
  1028  1030 4.0111e+08  931 3570 4.0105e+08 4.0111e+08  0.02%   843 3404s
  1029  1031 4.0111e+08  932 3738 4.0105e+08 4.0111e+08  0.02%   843 3406s
  1031  1033 4.0111e+08  933 3342 4.0105e+08 4.0111e+08  0.02%   845 3416s
  1035  1037 4.0111e+08  937 3651 4.0105e+08 4.0111e+08  0.02%   843 3422s
  1038  1040 4.0111e+08  940 3769 4.0105e+08 4.0111e+08  0.02%   841 3426s
  1041  1043 4.0111e+08  943 3808 4.0105e+08 4.0111e+08  0.02%   840 3431s
  1045  1047 4.0111e+08  947 3815 4.0105e+08 4.0111e+08  0.02%   837 3435s
  1049  1051 4.0111e+08  951 3870 4.0105e+08 4.0111e+08  0.02%   835 3440s
  1053  1055 4.0111e+08  955 3801 4.0105e+08 4.0111e+08  0.02%   833 3445s
  1056  1058 4.0111e+08  958 3712 4.0105e+08 4.0111e+08  0.02%   833 3451s
  1059  1061 4.0111e+08  961 3726 4.0105e+08 4.0111e+08  0.02%   831 3456s
  1061  1063 4.0111e+08  962 3388 4.0105e+08 4.0111e+08  0.02%   834 3467s
  1063  1065 4.0111e+08  964 3735 4.0105e+08 4.0111e+08  0.02%   833 3470s
  1069  1071 4.0111e+08  970 3631 4.0105e+08 4.0111e+08  0.02%   829 3475s
  1071  1073 4.0111e+08  972 3526 4.0105e+08 4.0111e+08  0.02%   829 3480s
  1075  1077 4.0111e+08  976 3625 4.0105e+08 4.0111e+08  0.02%   827 3486s
  1078  1080 4.0111e+08  979 3610 4.0105e+08 4.0111e+08  0.02%   826 3491s
  1083  1085 4.0111e+08  984 3636 4.0105e+08 4.0111e+08  0.02%   824 3495s
  1088  1090 4.0111e+08  989 3639 4.0105e+08 4.0111e+08  0.02%   821 3500s
  1092  1094 4.0111e+08  993 3565 4.0105e+08 4.0111e+08  0.02%   819 3506s
  1096  1098 4.0111e+08  997 3554 4.0105e+08 4.0111e+08  0.02%   818 3511s
  1101  1103 4.0111e+08 1002 3641 4.0105e+08 4.0111e+08  0.02%   815 3515s
  1105  1107 4.0111e+08 1006 3575 4.0105e+08 4.0111e+08  0.02%   814 3521s
  1106  1108 4.0111e+08 1006 3398 4.0105e+08 4.0111e+08  0.02%   817 3533s
  1108  1110 4.0111e+08 1008 3484 4.0105e+08 4.0111e+08  0.02%   816 3535s
  1111  1113 4.0111e+08 1011 3545 4.0105e+08 4.0111e+08  0.02%   815 3540s
  1114  1116 4.0111e+08 1014 3531 4.0105e+08 4.0111e+08  0.02%   814 3545s
  1119  1121 4.0111e+08 1019 3483 4.0105e+08 4.0111e+08  0.02%   811 3550s
  1121  1123 4.0111e+08 1021 3575 4.0105e+08 4.0111e+08  0.02%   812 3557s
  1122  1124 4.0111e+08 1021 3457 4.0105e+08 4.0111e+08  0.02%   812 3561s
  1125  1127 4.0111e+08 1024 3454 4.0105e+08 4.0111e+08  0.02%   811 3565s
  1128  1130 4.0111e+08 1027 3444 4.0105e+08 4.0111e+08  0.02%   810 3570s
  1132  1134 4.0111e+08 1031 3359 4.0105e+08 4.0111e+08  0.02%   808 3576s
  1136  1138 4.0111e+08 1035 3436 4.0105e+08 4.0111e+08  0.02%   807 3580s
  1141  1143 4.0111e+08 1040 3378 4.0105e+08 4.0111e+08  0.02%   804 3585s
  1142  1144 4.0111e+08 1041 3414 4.0105e+08 4.0111e+08  0.02%   804 3600s

Cutting planes:
  MIR: 2
  Flow cover: 5
  RLT: 2910

Explored 1143 nodes (952574 simplex iterations) in 3600.10 seconds (6768.81 work units)
Thread count was 1 (of 20 available processors)

Solution count 10: 4.0105e+08 4.01044e+08 4.01043e+08 ... -4.82082e+08

Time limit reached
Best objective 4.010500504628e+08, best bound 4.011148744480e+08, gap 0.0162%
